20	5
0	8	6	1	7	4	3	11	5	2
1	2	21	20
2	1	13
3	1	15
4	1	10
5	1	16
6	2	18	19
7	1	18
8	2	9	17
9	0
10	0
11	1	12
12	1	19
13	2	17	15
14	1	8
15	1	21
16	1	21
17	1	21
18	1	21
19	1	21
20	1	21
21	0
0	0	0	0	0	0	0
1	4	3	5	4	1	2
2	6	1	3	1	1	2
3	10	5	3	2	3	4
4	8	5	4	1	4	5
5	8	3	2	2	4	1
6	8	5	4	2	4	5
7	3	1	4	1	1	5
8	2	4	3	3	5	2
9	3	2	5	4	5	3
10	9	2	3	4	5	1
11	2	3	2	5	4	4
12	4	1	4	3	1	5
13	8	2	3	4	5	5
14	2	1	5	4	5	2
15	8	5	1	5	3	2
16	10	2	3	4	4	1
17	7	2	2	1	4	3
18	3	1	3	1	4	4
19	7	2	1	2	4	1
20	2	5	2	4	5	4
21	0	0	0	0	0	0
11	10	9	10	11
